; benchmark generated from python API
(set-info :status unknown)
(declare-fun syscall_stub_newfstatat_83_64 () (_ BitVec 64))
(declare-fun mem_c0000f45_79_992 () (_ BitVec 992))
(declare-fun mem_fffffffffffffff0_101_128 () (_ BitVec 128))
(declare-fun mem_c0001010_98_32 () (_ BitVec 32))
(declare-fun mem_0_113_128 () (_ BitVec 128))
(declare-fun mem_10_132_128 () (_ BitVec 128))
(assert
 (let ((?x47 ((_ extract 31 0) syscall_stub_newfstatat_83_64)))
 (let (($x52 (bvule ?x47 (_ bv4294963200 32))))
 (not $x52))))
(assert
 (let ((?x2189 ((_ extract 900 900) mem_c0000f45_79_992)))
 (= (_ bv0 1) ?x2189)))
(assert
 (let ((?x2374 ((_ extract 839 832) mem_c0000f45_79_992)))
 (let ((?x11156 (concat (_ bv72057594037927935 56) ?x2374)))
 (let ((?x11157 (bvmul (_ bv18446744073709551615 64) ?x11156)))
 (let ((?x2427 ((_ extract 775 768) mem_c0000f45_79_992)))
 (let ((?x2419 ((_ extract 767 760) mem_c0000f45_79_992)))
 (let ((?x2429 ((_ extract 759 752) mem_c0000f45_79_992)))
 (let ((?x2417 ((_ extract 751 744) mem_c0000f45_79_992)))
 (let ((?x2410 ((_ extract 743 736) mem_c0000f45_79_992)))
 (let ((?x2411 ((_ extract 735 728) mem_c0000f45_79_992)))
 (let ((?x4124 (concat (concat ((_ extract 719 712) mem_c0000f45_79_992) ((_ extract 727 720) mem_c0000f45_79_992)) ?x2411)))
 (let ((?x3823 (concat (concat (concat (concat (concat ?x4124 ?x2410) ?x2417) ?x2429) ?x2419) ?x2427)))
 (let ((?x17565 (bvadd ?x3823 ?x11157)))
 (let ((?x17657 ((_ extract 63 63) ?x17565)))
 (let (($x17606 (= (_ bv1 1) ?x17657)))
 (not $x17606))))))))))))))))
(assert
 (let ((?x4996 ((_ extract 837 832) mem_c0000f45_79_992)))
 (let (($x3467 (bvule ?x4996 (_ bv48 6))))
 (not $x3467))))
(assert
 (let ((?x6435 ((_ extract 839 836) mem_c0000f45_79_992)))
 (= (_ bv15 4) ?x6435)))
(assert
 (let ((?x6423 ((_ extract 835 832) mem_c0000f45_79_992)))
 (let ((?x6432 (concat (_ bv0 60) ?x6423)))
 (let ((?x5362 ((_ extract 7 0) mem_fffffffffffffff0_101_128)))
 (let (($x5316 (= (_ bv10 8) ?x5362)))
 (let ((?x5427 (ite $x5316 (_ bv1 1) (_ bv0 1))))
 (let ((?x5349 ((_ extract 15 8) mem_fffffffffffffff0_101_128)))
 (let (($x5351 (= (_ bv10 8) ?x5349)))
 (let ((?x5426 (ite $x5351 (_ bv1 1) (_ bv0 1))))
 (let ((?x623 ((_ extract 23 16) mem_fffffffffffffff0_101_128)))
 (let (($x620 (= (_ bv10 8) ?x623)))
 (let ((?x5425 (ite $x620 (_ bv1 1) (_ bv0 1))))
 (let ((?x5295 ((_ extract 31 24) mem_fffffffffffffff0_101_128)))
 (let (($x5369 (= (_ bv10 8) ?x5295)))
 (let ((?x5352 (ite $x5369 (_ bv1 1) (_ bv0 1))))
 (let ((?x5409 ((_ extract 39 32) mem_fffffffffffffff0_101_128)))
 (let (($x5379 (= (_ bv10 8) ?x5409)))
 (let ((?x5304 (ite $x5379 (_ bv1 1) (_ bv0 1))))
 (let ((?x5411 ((_ extract 47 40) mem_fffffffffffffff0_101_128)))
 (let (($x597 (= (_ bv10 8) ?x5411)))
 (let ((?x5386 (ite $x597 (_ bv1 1) (_ bv0 1))))
 (let ((?x5296 ((_ extract 55 48) mem_fffffffffffffff0_101_128)))
 (let (($x5391 (= (_ bv10 8) ?x5296)))
 (let ((?x5314 (ite $x5391 (_ bv1 1) (_ bv0 1))))
 (let ((?x5303 ((_ extract 63 56) mem_fffffffffffffff0_101_128)))
 (let (($x5378 (= (_ bv10 8) ?x5303)))
 (let ((?x5298 (ite $x5378 (_ bv1 1) (_ bv0 1))))
 (let ((?x5336 ((_ extract 71 64) mem_fffffffffffffff0_101_128)))
 (let (($x5333 (= (_ bv10 8) ?x5336)))
 (let ((?x5339 (ite $x5333 (_ bv1 1) (_ bv0 1))))
 (let ((?x5326 ((_ extract 79 72) mem_fffffffffffffff0_101_128)))
 (let (($x5398 (= (_ bv10 8) ?x5326)))
 (let ((?x5376 (ite $x5398 (_ bv1 1) (_ bv0 1))))
 (let ((?x5337 ((_ extract 87 80) mem_fffffffffffffff0_101_128)))
 (let (($x5414 (= (_ bv10 8) ?x5337)))
 (let ((?x5420 (ite $x5414 (_ bv1 1) (_ bv0 1))))
 (let ((?x621 ((_ extract 95 88) mem_fffffffffffffff0_101_128)))
 (let (($x5348 (= (_ bv10 8) ?x621)))
 (let ((?x5390 (ite $x5348 (_ bv1 1) (_ bv0 1))))
 (let ((?x5359 ((_ extract 103 96) mem_fffffffffffffff0_101_128)))
 (let (($x5363 (= (_ bv10 8) ?x5359)))
 (let ((?x5325 (ite $x5363 (_ bv1 1) (_ bv0 1))))
 (let ((?x5382 ((_ extract 111 104) mem_fffffffffffffff0_101_128)))
 (let (($x5320 (= (_ bv10 8) ?x5382)))
 (let ((?x5395 (ite $x5320 (_ bv1 1) (_ bv0 1))))
 (let ((?x5353 ((_ extract 119 112) mem_fffffffffffffff0_101_128)))
 (let (($x598 (= (_ bv10 8) ?x5353)))
 (let ((?x5332 (ite $x598 (_ bv1 1) (_ bv0 1))))
 (let ((?x5309 ((_ extract 127 120) mem_fffffffffffffff0_101_128)))
 (let (($x5404 (= (_ bv10 8) ?x5309)))
 (let ((?x5417 (ite $x5404 (_ bv1 1) (_ bv0 1))))
 (let ((?x11594 (concat (concat (concat (concat (concat (_ bv0 48) ?x5417) ?x5332) ?x5395) ?x5325) ?x5390)))
 (let ((?x11608 (concat (concat (concat (concat (concat ?x11594 ?x5420) ?x5376) ?x5339) ?x5298) ?x5314)))
 (let ((?x11557 (concat (concat (concat (concat (concat ?x11608 ?x5386) ?x5304) ?x5352) ?x5425) ?x5426)))
 (let ((?x11584 (concat ?x11557 ?x5427)))
 (let ((?x11578 (bvashr ?x11584 ?x6432)))
 (let ((?x11610 ((_ extract 31 0) ?x11578)))
 (= (_ bv0 32) ?x11610))))))))))))))))))))))))))))))))))))))))))))))))))))))))))
(assert
 (let ((?x6423 ((_ extract 835 832) mem_c0000f45_79_992)))
 (let ((?x6432 (concat (_ bv0 60) ?x6423)))
 (let ((?x10865 (bvmul (_ bv18446744073709551615 64) ?x6432)))
 (let ((?x10876 (bvadd (_ bv16 64) ?x10865)))
 (let ((?x2374 ((_ extract 839 832) mem_c0000f45_79_992)))
 (let ((?x11156 (concat (_ bv72057594037927935 56) ?x2374)))
 (let ((?x11157 (bvmul (_ bv18446744073709551615 64) ?x11156)))
 (let ((?x2427 ((_ extract 775 768) mem_c0000f45_79_992)))
 (let ((?x2419 ((_ extract 767 760) mem_c0000f45_79_992)))
 (let ((?x2429 ((_ extract 759 752) mem_c0000f45_79_992)))
 (let ((?x2417 ((_ extract 751 744) mem_c0000f45_79_992)))
 (let ((?x2410 ((_ extract 743 736) mem_c0000f45_79_992)))
 (let ((?x2411 ((_ extract 735 728) mem_c0000f45_79_992)))
 (let ((?x4124 (concat (concat ((_ extract 719 712) mem_c0000f45_79_992) ((_ extract 727 720) mem_c0000f45_79_992)) ?x2411)))
 (let ((?x3823 (concat (concat (concat (concat (concat ?x4124 ?x2410) ?x2417) ?x2429) ?x2419) ?x2427)))
 (let ((?x17565 (bvadd ?x3823 ?x11157)))
 (let ((?x3615 ((_ extract 824 824) mem_c0000f45_79_992)))
 (let ((?x3589 (concat ?x3615 ?x2374)))
 (let ((?x4638 (bvmul (_ bv511 9) ?x3589)))
 (let ((?x4203 ((_ extract 760 760) mem_c0000f45_79_992)))
 (let ((?x3607 (concat ?x4203 ?x2427)))
 (let ((?x3785 (bvadd ?x3607 ?x4638)))
 (let (($x4511 (bvule ?x3785 (_ bv399 9))))
 (let ((?x17607 ((_ extract 63 9) ?x17565)))
 (let (($x17611 (= (_ bv0 55) ?x17607)))
 (let (($x17584 (and $x17611 $x4511)))
 (let ((?x17711 (ite $x17584 ?x17565 (_ bv399 64))))
 (let (($x17615 (bvule ?x17711 ?x10876)))
 (not $x17615))))))))))))))))))))))))))))))
(assert
 (let ((?x6423 ((_ extract 835 832) mem_c0000f45_79_992)))
 (let ((?x10887 (concat (_ bv1152921504606846975 60) ?x6423)))
 (let ((?x2374 ((_ extract 839 832) mem_c0000f45_79_992)))
 (let ((?x11156 (concat (_ bv72057594037927935 56) ?x2374)))
 (let ((?x11157 (bvmul (_ bv18446744073709551615 64) ?x11156)))
 (let ((?x2427 ((_ extract 775 768) mem_c0000f45_79_992)))
 (let ((?x2419 ((_ extract 767 760) mem_c0000f45_79_992)))
 (let ((?x2429 ((_ extract 759 752) mem_c0000f45_79_992)))
 (let ((?x2417 ((_ extract 751 744) mem_c0000f45_79_992)))
 (let ((?x2410 ((_ extract 743 736) mem_c0000f45_79_992)))
 (let ((?x2411 ((_ extract 735 728) mem_c0000f45_79_992)))
 (let ((?x4124 (concat (concat ((_ extract 719 712) mem_c0000f45_79_992) ((_ extract 727 720) mem_c0000f45_79_992)) ?x2411)))
 (let ((?x3823 (concat (concat (concat (concat (concat ?x4124 ?x2410) ?x2417) ?x2429) ?x2419) ?x2427)))
 (let ((?x17565 (bvadd ?x3823 ?x11157)))
 (let ((?x3615 ((_ extract 824 824) mem_c0000f45_79_992)))
 (let ((?x3589 (concat ?x3615 ?x2374)))
 (let ((?x4638 (bvmul (_ bv511 9) ?x3589)))
 (let ((?x4203 ((_ extract 760 760) mem_c0000f45_79_992)))
 (let ((?x3607 (concat ?x4203 ?x2427)))
 (let ((?x3785 (bvadd ?x3607 ?x4638)))
 (let (($x4511 (bvule ?x3785 (_ bv399 9))))
 (let ((?x17607 ((_ extract 63 9) ?x17565)))
 (let (($x17611 (= (_ bv0 55) ?x17607)))
 (let (($x17584 (and $x17611 $x4511)))
 (let ((?x17711 (ite $x17584 ?x17565 (_ bv399 64))))
 (let ((?x17597 (bvadd ?x17711 ?x10887)))
 (let ((?x17570 ((_ extract 63 7) ?x17597)))
 (= (_ bv0 57) ?x17570)))))))))))))))))))))))))))))
(assert
 (let ((?x2364 ((_ extract 831 824) mem_c0000f45_79_992)))
 (= (_ bv255 8) ?x2364)))
(assert
 (let ((?x2349 ((_ extract 823 816) mem_c0000f45_79_992)))
 (= (_ bv255 8) ?x2349)))
(assert
 (let ((?x2357 ((_ extract 815 808) mem_c0000f45_79_992)))
 (= (_ bv255 8) ?x2357)))
(assert
 (let ((?x2362 ((_ extract 807 800) mem_c0000f45_79_992)))
 (= (_ bv255 8) ?x2362)))
(assert
 (let ((?x2363 ((_ extract 799 792) mem_c0000f45_79_992)))
 (= (_ bv255 8) ?x2363)))
(assert
 (let ((?x2346 ((_ extract 791 784) mem_c0000f45_79_992)))
 (= (_ bv255 8) ?x2346)))
(assert
 (let ((?x2345 ((_ extract 783 776) mem_c0000f45_79_992)))
 (= (_ bv255 8) ?x2345)))
(assert
 (let ((?x6423 ((_ extract 835 832) mem_c0000f45_79_992)))
 (let ((?x14178 (concat (_ bv7 3) ?x6423)))
 (let ((?x14167 ((_ extract 838 832) mem_c0000f45_79_992)))
 (let ((?x14394 (bvmul (_ bv127 7) ?x14167)))
 (let ((?x13987 ((_ extract 774 768) mem_c0000f45_79_992)))
 (let ((?x14007 (bvadd ?x13987 ?x14394)))
 (let ((?x2374 ((_ extract 839 832) mem_c0000f45_79_992)))
 (let ((?x3615 ((_ extract 824 824) mem_c0000f45_79_992)))
 (let ((?x3589 (concat ?x3615 ?x2374)))
 (let ((?x4638 (bvmul (_ bv511 9) ?x3589)))
 (let ((?x2427 ((_ extract 775 768) mem_c0000f45_79_992)))
 (let ((?x4203 ((_ extract 760 760) mem_c0000f45_79_992)))
 (let ((?x3607 (concat ?x4203 ?x2427)))
 (let ((?x3785 (bvadd ?x3607 ?x4638)))
 (let (($x4511 (bvule ?x3785 (_ bv399 9))))
 (let ((?x11156 (concat (_ bv72057594037927935 56) ?x2374)))
 (let ((?x11157 (bvmul (_ bv18446744073709551615 64) ?x11156)))
 (let ((?x2419 ((_ extract 767 760) mem_c0000f45_79_992)))
 (let ((?x2429 ((_ extract 759 752) mem_c0000f45_79_992)))
 (let ((?x2417 ((_ extract 751 744) mem_c0000f45_79_992)))
 (let ((?x2410 ((_ extract 743 736) mem_c0000f45_79_992)))
 (let ((?x2411 ((_ extract 735 728) mem_c0000f45_79_992)))
 (let ((?x4124 (concat (concat ((_ extract 719 712) mem_c0000f45_79_992) ((_ extract 727 720) mem_c0000f45_79_992)) ?x2411)))
 (let ((?x3823 (concat (concat (concat (concat (concat ?x4124 ?x2410) ?x2417) ?x2429) ?x2419) ?x2427)))
 (let ((?x17565 (bvadd ?x3823 ?x11157)))
 (let ((?x17607 ((_ extract 63 9) ?x17565)))
 (let (($x17611 (= (_ bv0 55) ?x17607)))
 (let (($x17584 (and $x17611 $x4511)))
 (let ((?x17612 (ite $x17584 ?x14007 (_ bv15 7))))
 (let ((?x17567 (bvadd ?x17612 ?x14178)))
 (bvule ?x17567 (_ bv64 7)))))))))))))))))))))))))))))))))
(assert
 (let ((?x2400 ((_ extract 719 712) mem_c0000f45_79_992)))
 (let (($x17560 (= (_ bv255 8) ?x2400)))
 (let (($x17562 (not $x17560)))
 (let ((?x2374 ((_ extract 839 832) mem_c0000f45_79_992)))
 (let ((?x2427 ((_ extract 775 768) mem_c0000f45_79_992)))
 (let (($x1152 (= ?x2427 ?x2374)))
 (let (($x4139 (not $x1152)))
 (let ((?x2411 ((_ extract 735 728) mem_c0000f45_79_992)))
 (let (($x17604 (= (_ bv255 8) ?x2411)))
 (let (($x17721 (not $x17604)))
 (let ((?x2401 ((_ extract 727 720) mem_c0000f45_79_992)))
 (let (($x17731 (= (_ bv255 8) ?x2401)))
 (let (($x17664 (not $x17731)))
 (let ((?x2417 ((_ extract 751 744) mem_c0000f45_79_992)))
 (let (($x17650 (= (_ bv255 8) ?x2417)))
 (let (($x17555 (not $x17650)))
 (let ((?x2410 ((_ extract 743 736) mem_c0000f45_79_992)))
 (let (($x17595 (= (_ bv255 8) ?x2410)))
 (let (($x17616 (not $x17595)))
 (let ((?x2419 ((_ extract 767 760) mem_c0000f45_79_992)))
 (let (($x17574 (= (_ bv255 8) ?x2419)))
 (let (($x17598 (not $x17574)))
 (let ((?x2429 ((_ extract 759 752) mem_c0000f45_79_992)))
 (let (($x17591 (= (_ bv255 8) ?x2429)))
 (let (($x17582 (not $x17591)))
 (or $x17582 $x17598 $x17616 $x17555 $x17664 $x17721 $x4139 $x17562)))))))))))))))))))))))))))
(assert
 (let ((?x6423 ((_ extract 835 832) mem_c0000f45_79_992)))
 (let ((?x16888 (concat (_ bv268435455 28) ?x6423)))
 (let ((?x2374 ((_ extract 839 832) mem_c0000f45_79_992)))
 (let ((?x13019 (concat (_ bv16777215 24) ?x2374)))
 (let ((?x12062 (bvmul (_ bv4294967295 32) ?x13019)))
 (let ((?x2427 ((_ extract 775 768) mem_c0000f45_79_992)))
 (let ((?x2419 ((_ extract 767 760) mem_c0000f45_79_992)))
 (let ((?x21977 (concat (concat ((_ extract 751 744) mem_c0000f45_79_992) ((_ extract 759 752) mem_c0000f45_79_992)) ?x2419)))
 (let ((?x22501 (concat ?x21977 ?x2427)))
 (let ((?x15826 (bvadd ?x22501 ?x12062)))
 (let ((?x3615 ((_ extract 824 824) mem_c0000f45_79_992)))
 (let ((?x3589 (concat ?x3615 ?x2374)))
 (let ((?x4638 (bvmul (_ bv511 9) ?x3589)))
 (let ((?x4203 ((_ extract 760 760) mem_c0000f45_79_992)))
 (let ((?x3607 (concat ?x4203 ?x2427)))
 (let ((?x3785 (bvadd ?x3607 ?x4638)))
 (let (($x4511 (bvule ?x3785 (_ bv399 9))))
 (let ((?x11156 (concat (_ bv72057594037927935 56) ?x2374)))
 (let ((?x11157 (bvmul (_ bv18446744073709551615 64) ?x11156)))
 (let ((?x2429 ((_ extract 759 752) mem_c0000f45_79_992)))
 (let ((?x2417 ((_ extract 751 744) mem_c0000f45_79_992)))
 (let ((?x2410 ((_ extract 743 736) mem_c0000f45_79_992)))
 (let ((?x2411 ((_ extract 735 728) mem_c0000f45_79_992)))
 (let ((?x4124 (concat (concat ((_ extract 719 712) mem_c0000f45_79_992) ((_ extract 727 720) mem_c0000f45_79_992)) ?x2411)))
 (let ((?x3823 (concat (concat (concat (concat (concat ?x4124 ?x2410) ?x2417) ?x2429) ?x2419) ?x2427)))
 (let ((?x17565 (bvadd ?x3823 ?x11157)))
 (let ((?x17607 ((_ extract 63 9) ?x17565)))
 (let (($x17611 (= (_ bv0 55) ?x17607)))
 (let (($x17584 (and $x17611 $x4511)))
 (let ((?x15819 (ite $x17584 ?x15826 (_ bv399 32))))
 (let ((?x15770 (bvadd (bvadd (_ bv4294967264 32) ?x15819) ?x16888)))
 (let ((?x15648 ((_ extract 31 31) ?x15770)))
 (let ((?x10887 (concat (_ bv1152921504606846975 60) ?x6423)))
 (let ((?x15268 (bvadd (bvadd (_ bv18446744073709551552 64) (ite $x17584 ?x17565 (_ bv399 64))) ?x10887)))
 (let ((?x15576 ((_ extract 31 31) ?x15268)))
 (let (($x15341 (= ?x15576 ?x15648)))
 (let (($x15672 (= (_ bv1 1) ?x15576)))
 (let (($x15917 (or $x15672 $x15341)))
 (let ((?x15910 (ite $x15917 (_ bv1 1) (_ bv0 1))))
 (let (($x15945 (= ?x15648 ?x15910)))
 (let ((?x15474 (bvmul (_ bv4294967295 32) ?x16888)))
 (let ((?x15679 (bvadd (_ bv32 32) ?x15474)))
 (let (($x15763 (= ?x15819 ?x15679)))
 (or $x15763 $x15945)))))))))))))))))))))))))))))))))))))))))))))
(assert
 (let ((?x6423 ((_ extract 835 832) mem_c0000f45_79_992)))
 (let ((?x16888 (concat (_ bv268435455 28) ?x6423)))
 (let ((?x2374 ((_ extract 839 832) mem_c0000f45_79_992)))
 (let ((?x13019 (concat (_ bv16777215 24) ?x2374)))
 (let ((?x12062 (bvmul (_ bv4294967295 32) ?x13019)))
 (let ((?x2427 ((_ extract 775 768) mem_c0000f45_79_992)))
 (let ((?x2419 ((_ extract 767 760) mem_c0000f45_79_992)))
 (let ((?x21977 (concat (concat ((_ extract 751 744) mem_c0000f45_79_992) ((_ extract 759 752) mem_c0000f45_79_992)) ?x2419)))
 (let ((?x22501 (concat ?x21977 ?x2427)))
 (let ((?x15826 (bvadd ?x22501 ?x12062)))
 (let ((?x3615 ((_ extract 824 824) mem_c0000f45_79_992)))
 (let ((?x3589 (concat ?x3615 ?x2374)))
 (let ((?x4638 (bvmul (_ bv511 9) ?x3589)))
 (let ((?x4203 ((_ extract 760 760) mem_c0000f45_79_992)))
 (let ((?x3607 (concat ?x4203 ?x2427)))
 (let ((?x3785 (bvadd ?x3607 ?x4638)))
 (let (($x4511 (bvule ?x3785 (_ bv399 9))))
 (let ((?x11156 (concat (_ bv72057594037927935 56) ?x2374)))
 (let ((?x11157 (bvmul (_ bv18446744073709551615 64) ?x11156)))
 (let ((?x2429 ((_ extract 759 752) mem_c0000f45_79_992)))
 (let ((?x2417 ((_ extract 751 744) mem_c0000f45_79_992)))
 (let ((?x2410 ((_ extract 743 736) mem_c0000f45_79_992)))
 (let ((?x2411 ((_ extract 735 728) mem_c0000f45_79_992)))
 (let ((?x4124 (concat (concat ((_ extract 719 712) mem_c0000f45_79_992) ((_ extract 727 720) mem_c0000f45_79_992)) ?x2411)))
 (let ((?x3823 (concat (concat (concat (concat (concat ?x4124 ?x2410) ?x2417) ?x2429) ?x2419) ?x2427)))
 (let ((?x17565 (bvadd ?x3823 ?x11157)))
 (let ((?x17607 ((_ extract 63 9) ?x17565)))
 (let (($x17611 (= (_ bv0 55) ?x17607)))
 (let (($x17584 (and $x17611 $x4511)))
 (let ((?x15819 (ite $x17584 ?x15826 (_ bv399 32))))
 (let ((?x33488 (bvadd ?x15819 ?x16888)))
 (let ((?x33276 ((_ extract 31 5) ?x33488)))
 (let (($x33765 (= (_ bv0 27) ?x33276)))
 (let (($x33322 (not $x33765)))
 (let ((?x15179 (concat (_ bv1 1) ?x6423)))
 (let ((?x22509 ((_ extract 836 832) mem_c0000f45_79_992)))
 (let ((?x22525 (bvmul (_ bv31 5) ?x22509)))
 (let ((?x10558 ((_ extract 772 768) mem_c0000f45_79_992)))
 (let ((?x22158 (bvadd ?x10558 ?x22525)))
 (let ((?x33343 (ite $x17584 ?x22158 (_ bv15 5))))
 (let ((?x33315 (bvadd ?x33343 ?x15179)))
 (let (($x33494 (bvule ?x33315 (_ bv16 5))))
 (let (($x33324 (not $x33494)))
 (or $x33324 $x33322)))))))))))))))))))))))))))))))))))))))))))))
(assert
 (let (($x2293 (= (_ bv0 32) mem_c0001010_98_32)))
 (not $x2293)))
(assert
 (let ((?x24076 ((_ extract 15 8) mem_0_113_128)))
 (let (($x24078 (= (_ bv10 8) ?x24076)))
 (not $x24078))))
(assert
 (let ((?x24082 ((_ extract 7 0) mem_0_113_128)))
 (let (($x24085 (= (_ bv10 8) ?x24082)))
 (not $x24085))))
(assert
 (let ((?x24069 ((_ extract 23 16) mem_0_113_128)))
 (let (($x24072 (= (_ bv10 8) ?x24069)))
 (not $x24072))))
(assert
 (let ((?x24063 ((_ extract 31 24) mem_0_113_128)))
 (let (($x24064 (= (_ bv10 8) ?x24063)))
 (not $x24064))))
(assert
 (let ((?x24055 ((_ extract 39 32) mem_0_113_128)))
 (let (($x24058 (= (_ bv10 8) ?x24055)))
 (not $x24058))))
(assert
 (let ((?x15994 ((_ extract 47 40) mem_0_113_128)))
 (let (($x15798 (= (_ bv10 8) ?x15994)))
 (not $x15798))))
(assert
 (let ((?x24043 ((_ extract 55 48) mem_0_113_128)))
 (let (($x24046 (= (_ bv10 8) ?x24043)))
 (not $x24046))))
(assert
 (let ((?x24034 ((_ extract 63 56) mem_0_113_128)))
 (let (($x24040 (= (_ bv10 8) ?x24034)))
 (not $x24040))))
(assert
 (let ((?x24033 ((_ extract 71 64) mem_0_113_128)))
 (let (($x24036 (= (_ bv10 8) ?x24033)))
 (not $x24036))))
(assert
 (let ((?x15582 ((_ extract 79 72) mem_0_113_128)))
 (let (($x23833 (= (_ bv10 8) ?x15582)))
 (not $x23833))))
(assert
 (let ((?x15973 ((_ extract 87 80) mem_0_113_128)))
 (let (($x15541 (= (_ bv10 8) ?x15973)))
 (not $x15541))))
(assert
 (let ((?x16461 ((_ extract 95 88) mem_0_113_128)))
 (let (($x15952 (= (_ bv10 8) ?x16461)))
 (not $x15952))))
(assert
 (let ((?x24049 ((_ extract 103 96) mem_0_113_128)))
 (let (($x16342 (= (_ bv10 8) ?x24049)))
 (not $x16342))))
(assert
 (let ((?x15665 ((_ extract 111 104) mem_0_113_128)))
 (let (($x15873 (= (_ bv10 8) ?x15665)))
 (not $x15873))))
(assert
 (let ((?x15698 ((_ extract 119 112) mem_0_113_128)))
 (let (($x15714 (= (_ bv10 8) ?x15698)))
 (not $x15714))))
(assert
 (let ((?x24051 ((_ extract 127 120) mem_0_113_128)))
 (let (($x24052 (= (_ bv10 8) ?x24051)))
 (not $x24052))))
(assert
 (let ((?x6435 ((_ extract 839 836) mem_c0000f45_79_992)))
 (let ((?x2364 ((_ extract 831 824) mem_c0000f45_79_992)))
 (let ((?x2349 ((_ extract 823 816) mem_c0000f45_79_992)))
 (let ((?x2357 ((_ extract 815 808) mem_c0000f45_79_992)))
 (let ((?x2362 ((_ extract 807 800) mem_c0000f45_79_992)))
 (let ((?x2363 ((_ extract 799 792) mem_c0000f45_79_992)))
 (let ((?x593 (concat (concat ((_ extract 783 776) mem_c0000f45_79_992) ((_ extract 791 784) mem_c0000f45_79_992)) ?x2363)))
 (let ((?x4215 (concat (concat (concat (concat ?x593 ?x2362) ?x2357) ?x2349) ?x2364)))
 (let ((?x14202 (concat (concat ?x4215 ?x6435) (_ bv0 4))))
 (let ((?x13437 (bvadd ?x14202 (_ bv32 64))))
 (= (_ bv16 64) ?x13437))))))))))))
(assert
 (let ((?x33457 ((_ extract 7 0) mem_10_132_128)))
 (let (($x33455 (= (_ bv10 8) ?x33457)))
 (let ((?x33804 (ite $x33455 (_ bv1 1) (_ bv0 1))))
 (let ((?x33518 ((_ extract 15 8) mem_10_132_128)))
 (let (($x33446 (= (_ bv10 8) ?x33518)))
 (let ((?x33803 (ite $x33446 (_ bv1 1) (_ bv0 1))))
 (let ((?x33164 ((_ extract 23 16) mem_10_132_128)))
 (let (($x33354 (= (_ bv10 8) ?x33164)))
 (let ((?x33802 (ite $x33354 (_ bv1 1) (_ bv0 1))))
 (let ((?x33216 ((_ extract 31 24) mem_10_132_128)))
 (let (($x33323 (= (_ bv10 8) ?x33216)))
 (let ((?x33792 (ite $x33323 (_ bv1 1) (_ bv0 1))))
 (let ((?x33204 ((_ extract 39 32) mem_10_132_128)))
 (let (($x34512 (= (_ bv10 8) ?x33204)))
 (let ((?x33567 (ite $x34512 (_ bv1 1) (_ bv0 1))))
 (let ((?x33203 ((_ extract 47 40) mem_10_132_128)))
 (let (($x33450 (= (_ bv10 8) ?x33203)))
 (let ((?x33531 (ite $x33450 (_ bv1 1) (_ bv0 1))))
 (let ((?x33435 ((_ extract 55 48) mem_10_132_128)))
 (let (($x33461 (= (_ bv10 8) ?x33435)))
 (let ((?x33777 (ite $x33461 (_ bv1 1) (_ bv0 1))))
 (let ((?x33573 ((_ extract 63 56) mem_10_132_128)))
 (let (($x33282 (= (_ bv10 8) ?x33573)))
 (let ((?x33462 (ite $x33282 (_ bv1 1) (_ bv0 1))))
 (let ((?x33522 ((_ extract 71 64) mem_10_132_128)))
 (let (($x33453 (= (_ bv10 8) ?x33522)))
 (let ((?x33786 (ite $x33453 (_ bv1 1) (_ bv0 1))))
 (let ((?x33454 ((_ extract 79 72) mem_10_132_128)))
 (let (($x33451 (= (_ bv10 8) ?x33454)))
 (let ((?x33795 (ite $x33451 (_ bv1 1) (_ bv0 1))))
 (let ((?x33528 ((_ extract 87 80) mem_10_132_128)))
 (let (($x33458 (= (_ bv10 8) ?x33528)))
 (let ((?x33525 (ite $x33458 (_ bv1 1) (_ bv0 1))))
 (let ((?x33448 ((_ extract 95 88) mem_10_132_128)))
 (let (($x33449 (= (_ bv10 8) ?x33448)))
 (let ((?x33798 (ite $x33449 (_ bv1 1) (_ bv0 1))))
 (let ((?x33460 ((_ extract 103 96) mem_10_132_128)))
 (let (($x33316 (= (_ bv10 8) ?x33460)))
 (let ((?x33780 (ite $x33316 (_ bv1 1) (_ bv0 1))))
 (let ((?x33580 ((_ extract 111 104) mem_10_132_128)))
 (let (($x33579 (= (_ bv10 8) ?x33580)))
 (let ((?x33783 (ite $x33579 (_ bv1 1) (_ bv0 1))))
 (let ((?x33766 ((_ extract 119 112) mem_10_132_128)))
 (let (($x33285 (= (_ bv10 8) ?x33766)))
 (let ((?x33789 (ite $x33285 (_ bv1 1) (_ bv0 1))))
 (let ((?x33577 ((_ extract 127 120) mem_10_132_128)))
 (let (($x33527 (= (_ bv10 8) ?x33577)))
 (let ((?x33773 (ite $x33527 (_ bv1 1) (_ bv0 1))))
 (let ((?x33809 (concat (concat (concat (concat (concat ?x33773 ?x33789) ?x33783) ?x33780) ?x33798) ?x33525)))
 (let ((?x33814 (concat (concat (concat (concat (concat ?x33809 ?x33795) ?x33786) ?x33462) ?x33777) ?x33531)))
 (let ((?x33819 (concat (concat (concat (concat (concat ?x33814 ?x33567) ?x33792) ?x33802) ?x33803) ?x33804)))
 (= (_ bv0 16) ?x33819)))))))))))))))))))))))))))))))))))))))))))))))))))))
(minimize mem_fffffffffffffff0_101_128)
(maximize mem_0_113_128)
(maximize mem_fffffffffffffff0_101_128)
(minimize mem_0_113_128)
(minimize mem_10_132_128)
(maximize mem_10_132_128)
(maximize mem_c0001010_98_32)
(minimize syscall_stub_newfstatat_83_64)
(minimize mem_c0001010_98_32)
(maximize mem_c0000f45_79_992)
(check-sat)
(get-objectives)
